nbTasks=33; /* Nombre d'activités */
nbEmployees=10; /* Nombre d'employés */
nbSkill=3; /* Nombre de compétences */
 
Dwork=35;
horizon=1..40;

 
Risk = [0,0,0,0,0,0,0,0,0,0,0,0,0,0,0,0,0,0,0,0,0,0,0,0,0,0,0,0,0,0,0,0,0];
 
ProcessingTime = [4,8,10,8,4,8,4,4,10,8,6,4,10,10,4,10,8,8,4,8,6,4,4,8,8,4,4,8,8,4,2,8,8];
 
Predecessor = [0,1,2,3,0,5,6,0,8,9,10,0,12,13,0,15,16,17,0,19,20,21,0,23,24,25,0,27,28,29,0,31,32];
 
DeliveryDate =[40,40,40,40,40,40,40,40,40,40,40,40,40,40,40,40,40,40,40,40,40,40,40,40,40,40,40,40,40,40,40,40,40];
 
Qualification = [|1,0,0,
         |1,0,0,
         |0,1,0,
         |0,0,1,
         |1,0,0,
         |0,1,0,
         |0,0,1,
         |1,0,0,
         |0,1,0,
         |0,0,1,
         |0,0,1,
         |1,0,0,
         |1,0,0,
         |0,1,0,
         |1,0,0,
         |1,0,0,
         |0,1,0,
         |0,0,1,
         |1,0,0,
         |1,0,0,
         |0,1,0,
         |0,0,1,
         |1,0,0,
         |1,0,0,
         |0,1,0,
         |0,0,1,
         |1,0,0,
         |1,0,0,
         |0,1,0,
         |1,0,0,
         |0,1,0,
         |0,0,1,
         |0,0,1|]; 
 
Availability = [0,5,0,0,0,0,0,0,9,0];    
 
Experience = [2,2,2,2,2,2,2,2,2,2];    
               
Competence = [|1,0,0,
         |1,0,0,
         |1,0,0,
         |1,0,0,
         |0,1,0,
         |0,1,0,
         |0,1,0,
         |0,1,0,
         |0,0,1,
         |0,0,1|];
         
Preferences = [|2,1,0,0,3,0,0,4,0,0,0,2,1,0,4,3,0,0,1,2,0,0,5,5,0,0,2,1,0,1,0,0,0,
|4,4,0,0,3,0,0,2,0,0,0,5,2,0,5,1,0,0,4,3,0,0,4,5,0,0,2,4,0,3,0,0,0,
|5,5,0,0,3,0,0,5,0,0,0,3,4,0,1,5,0,0,1,5,0,0,2,1,0,0,5,3,0,2,0,0,0,
|5,2,0,0,1,0,0,3,0,0,0,5,1,0,4,3,0,0,3,1,0,0,4,2,0,0,5,2,0,3,0,0,0,
|0,0,1,0,0,4,0,0,5,0,0,0,0,3,0,0,1,0,0,0,4,0,0,0,5,0,0,0,5,0,3,0,0,
|0,0,5,0,0,5,0,0,5,0,0,0,0,5,0,0,3,0,0,0,3,0,0,0,5,0,0,0,1,0,4,0,0,
|0,0,4,0,0,2,0,0,2,0,0,0,0,1,0,0,3,0,0,0,5,0,0,0,5,0,0,0,3,0,3,0,0,
|0,0,4,0,0,4,0,0,1,0,0,0,0,2,0,0,1,0,0,0,2,0,0,0,4,0,0,0,5,0,5,0,0,
|0,0,0,5,0,0,3,0,0,2,2,0,0,0,0,0,0,1,0,0,0,1,0,0,0,5,0,0,0,0,0,1,4,
|0,0,0,1,0,0,1,0,0,1,1,0,0,0,0,0,0,5,0,0,0,3,0,0,0,1,0,0,0,0,0,1,5|];
